minizinc/sudoku_problems2/sudoku_p46.dzn
%
% sudoku_p46.dzn
% See http://www.hakank.org/minizinc/sudoku_gcc.mzn
% 
% This problem is problem 46 from
% Gecode's sudoku.cpp
% http://www.gecode.org/gecode-doc-latest/sudoku_8cpp-source.html
% 
x = array2d(1..n, 1..n, [   
% http://janko.at/Raetsel/Sudoku/363.a.htm
% 46
  3,  _,  8,  _, 11, 13,  _,  _,  5, 15,  7,  2, 14,  _,  _,  6,
  _,  _, 16,  _,  _,  4,  _,  7, 14,  _,  _,  6, 15,  5,  _,  _,
  _, 10, 15,  _,  2,  _,  _, 12,  _,  _,  _,  _,  9, 16,  7,  3,
  5,  9, 12,  _,  _,  _, 15, 14,  _, 10, 16,  _,  _,  _,  _,  _,
 12,  5,  _,  _,  1,  _,  _, 15,  _,  4,  _, 16,  _, 14,  _,  7,
 15,  _,  _,  2,  _, 12,  _,  _, 11,  1,  3,  _,  _,  _, 16, 13,
  4,  _,  _, 11,  7,  3,  _, 13,  _,  _,  _,  _, 12,  _,  _,  _,
 16, 13,  _,  _,  _, 10,  _,  _,  _, 12,  _,  7, 11,  4,  8,  _,
  _, 16,  5, 15, 13,  _,  3,  _,  _,  _,  9,  _,  _,  _, 11, 14,
  _,  _,  _, 12,  _,  _,  _,  _,  6,  _, 14,  1, 16,  _,  _,  9,
  2,  8,  _,  _,  _,  7, 14,  1,  _,  _, 11,  _,  6,  _,  _,  4,
  1,  _, 11,  _,  5,  _, 12,  _,  3,  _,  _,  8,  _,  _, 10, 15,
  _,  _,  _,  _,  _, 14, 13,  _,  1,  6,  _,  _,  _,  3,  4,  5,
  9, 12,  2,  1,  _,  _,  _,  _,  7,  _,  _, 10,  _,  8, 14,  _,
  _,  _, 14, 10,  9,  _,  _,  3, 15,  _,  8,  _,  _,  7,  _,  _,
  6,  _,  _,  5,  8,  2,  7, 10,  _,  _,  4, 13,  _, 15,  _, 12
]);

n = 16;


